Route #1: 29 21 41 7 33 44 9 11 8 
Route #2: 54 14 19 55 4 40 28 24 42 22 5 12 26 61 6 15 
Route #3: 35 32 10 43 25 48 3 
Route #4: 16 53 45 23 38 17 37 
Route #5: 51 18 59 34 36 50 
Route #6: 13 31 2 47 46 20 39 
Route #7: 52 62 30 58 56 27 60 
Route #8: 49 57 
cost 1365.03
